NAME: Graph
TYPE: TSP
DIMENSION: 20
EDGE_WEIGHT_TYPE: EUC_2D
NODE_COORD_SECTION
1 3 31
2 5 26
3 17 7
4 18 36
5 24 91
6 25 59
7 36 24
8 37 95
9 40 71
10 44 35
11 48 29
12 50 35
13 54 91
14 56 94
15 57 57
16 57 76
17 72 24
18 78 35
19 90 12
20 93 14
EOF
